NAME : XML100_2172_09
DIMENSION : 101
NB_CLUSTERS : 5
CLUSTERING_ALG : KMedoids
CLUSTERING_PARAMS : k(4)
CLUSTERS
1 0
2 12 20 22 31 33 34 36 37 38 39 49 53 59 65 70 72 73 74 77 78 79 87 90 92
3 1 3 5 6 13 14 15 18 21 24 44 46 47 50 51 56 64 82 89 94 97 100
4 7 9 11 16 19 30 35 40 41 48 52 54 55 57 61 63 67 75 76 80 91 93 95 99
5 2 4 8 10 17 23 25 26 27 28 29 32 42 43 45 58 60 62 66 68 69 71 81 83 84 85 86 88 96 98
EOF